
Gurobi 11.0.3 (linux64) logging started Wed 20 Nov 2024 07:53:13 AM CST

Set parameter LogFile to value "/home/dlcole3/graph_abstraction/hierarchical_graphs/git_storage/CS1/HP_low_reserves/gurobi_logs/monolith/logfile12.log"
Set parameter NodefileStart to value 0.0005
Set parameter TimeLimit to value 7200

Gurobi 11.0.3 (linux64) logging started Wed 20 Nov 2024 07:53:56 AM CST

Set parameter LogFile to value "/home/dlcole3/graph_abstraction/hierarchical_graphs/git_storage/CS1/HP_low_reserves/gurobi_logs/monolith/logfile12.log"
Set parameter TimeLimit to value 7200
Gurobi Optimizer version 11.0.3 build v11.0.3rc0 (linux64 - "Ubuntu 18.04.3 LTS")

CPU model: Intel(R) Xeon(R) CPU E5-2698 v4 @ 2.20GHz, instruction set [SSE2|AVX|AVX2]
Thread count: 40 physical cores, 80 logical processors, using up to 20 threads

Optimize a model with 1105538 rows, 641709 columns and 4646693 nonzeros
Model fingerprint: 0x1b0abdaf
Variable types: 599982 continuous, 41727 integer (41727 binary)
Coefficient statistics:
  Matrix range     [5e-02, 2e+04]
  Objective range  [2e-01, 8e+04]
  Bounds range     [5e-02, 2e+05]
  RHS range        [1e-02, 7e+03]
Presolve removed 252294 rows and 123352 columns (presolve time = 5s) ...
Presolve removed 261532 rows and 124252 columns (presolve time = 10s) ...
Presolve removed 265005 rows and 125388 columns (presolve time = 15s) ...
Presolve removed 265289 rows and 125540 columns (presolve time = 20s) ...
Presolve removed 265391 rows and 125540 columns (presolve time = 25s) ...
Presolve removed 265411 rows and 125610 columns (presolve time = 30s) ...
Sparsify removed 137755 nonzeros (3%)
Presolve removed 265411 rows and 124408 columns
Presolve time: 34.70s
Presolved: 840127 rows, 517301 columns, 4497006 nonzeros
Variable types: 477158 continuous, 40143 integer (40075 binary)

Deterministic concurrent LP optimizer: primal simplex, dual simplex, and barrier
Showing barrier log only...

Root barrier log...

Elapsed ordering time = 5s
Elapsed ordering time = 10s
Elapsed ordering time = 37s
Elapsed ordering time = 40s
Elapsed ordering time = 45s
Elapsed ordering time = 50s
Elapsed ordering time = 55s
Elapsed ordering time = 64s
Elapsed ordering time = 66s
Elapsed ordering time = 70s
Elapsed ordering time = 75s
Elapsed ordering time = 80s
Ordering time: 86.94s

Barrier statistics:
 Dense cols : 328
 AA' NZ     : 4.896e+07
 Factor NZ  : 5.318e+08 (roughly 5.0 GB of memory)
 Factor Ops : 3.832e+12 (roughly 15 seconds per iteration)
 Threads    : 17

                  Objective                Residual
Iter       Primal          Dual         Primal    Dual     Compl     Time
   0  -2.09884779e+11 -1.80276478e+13  1.29e+04 1.43e+04  1.16e+08   148s
   1  -1.42798637e+11 -1.51041678e+13  9.47e+03 1.74e+05  8.22e+07   154s
   2  -1.01337145e+11 -1.18926215e+13  7.00e+03 8.01e+04  5.61e+07   160s
   3  -5.64731782e+10 -7.96821875e+12  4.18e+03 2.53e+04  3.17e+07   167s
   4  -2.02705251e+10 -3.63193447e+12  1.72e+03 1.47e+02  1.24e+07   174s
   5  -5.06537704e+09 -1.41386070e+12  6.72e+02 7.95e+02  4.41e+06   182s
   6   1.74792714e+09 -8.64529238e+11  2.31e+02 2.12e+02  1.61e+06   195s
   7   4.53106917e+09 -4.17328935e+11  6.38e+01 4.47e+01  4.83e+05   209s
   8   4.92446515e+09 -1.56011634e+11  2.02e+01 6.49e+00  1.43e+05   222s
   9   3.62576648e+09 -6.26182589e+10  9.41e+00 1.79e+00  5.25e+04   235s
  10   1.49236844e+09 -1.95801762e+10  3.59e+00 3.56e-01  1.50e+04   247s
  11   5.83269345e+08 -9.47223745e+09  1.31e+00 1.51e-01  6.43e+03   258s
  12   2.57276465e+08 -3.96134715e+09  4.55e-01 5.77e-02  2.55e+03   269s
  13   1.24201094e+08 -2.34448802e+09  1.02e-01 3.30e-02  1.44e+03   281s
  14   7.59357432e+07 -5.26164521e+08  8.53e-03 7.48e-03  3.46e+02   292s
  15   6.67167046e+07 -1.80493541e+08  2.56e-03 2.75e-03  1.42e+02   304s
  16   6.07685594e+07 -9.45438435e+07  1.26e-03 1.72e-03  8.91e+01   316s
  17   5.19509497e+07 -8.25252495e+06  4.42e-04 6.08e-04  3.45e+01   328s
  18   4.65743461e+07  2.31325913e+07  1.77e-04 2.06e-04  1.35e+01   341s
  19   4.45137032e+07  3.37872807e+07  1.15e-04 8.18e-05  6.16e+00   354s
  20   4.31408190e+07  3.76916065e+07  7.58e-05 3.16e-05  3.13e+00   366s
  21   4.20891041e+07  3.88482657e+07  4.77e-05 1.73e-05  1.86e+00   378s
  22   4.17464615e+07  3.91959563e+07  3.92e-05 1.28e-05  1.46e+00   389s
  23   4.13836461e+07  3.93145406e+07  2.96e-05 1.12e-05  1.19e+00   400s
  24   4.11643154e+07  3.96838522e+07  2.44e-05 6.78e-06  8.50e-01   412s
  25   4.09759013e+07  3.98614570e+07  2.01e-05 4.43e-06  6.40e-01   423s
  26   4.06754215e+07  3.99926758e+07  1.24e-05 2.74e-06  3.92e-01   435s
  27   4.05528293e+07  4.00570928e+07  9.24e-06 1.89e-06  2.85e-01   448s
  28   4.04660748e+07  4.01028826e+07  7.14e-06 1.34e-06  2.09e-01   461s
  29   4.03665226e+07  4.01454209e+07  4.64e-06 8.06e-07  1.27e-01   475s
  30   4.03176733e+07  4.01628880e+07  4.49e-06 5.89e-07  8.89e-02   489s
  31   4.02809447e+07  4.01807837e+07  4.77e-06 3.65e-07  5.75e-02   503s
  32   4.02581399e+07  4.01908047e+07  4.75e-06 2.47e-07  3.87e-02   519s
  33   4.02430955e+07  4.01968351e+07  3.49e-06 1.72e-07  2.66e-02   535s
  34   4.02392448e+07  4.01979542e+07  3.11e-06 1.64e-07  2.37e-02   551s
  35   4.02336900e+07  4.02004363e+07  2.53e-06 1.40e-07  1.91e-02   564s
  36   4.02307061e+07  4.02050251e+07  2.31e-06 8.66e-08  1.48e-02   580s
  37   4.02270826e+07  4.02070058e+07  1.91e-06 6.50e-08  1.15e-02   598s
  38   4.02226321e+07  4.02081530e+07  1.81e-06 5.56e-08  8.32e-03   616s
  39   4.02210081e+07  4.02098461e+07  1.95e-06 3.55e-08  6.41e-03   634s
  40   4.02187805e+07  4.02105406e+07  1.63e-06 3.01e-08  4.73e-03   652s
  41   4.02177287e+07  4.02113263e+07  1.38e-06 1.81e-08  3.68e-03   671s
  42   4.02161461e+07  4.02119277e+07  1.50e-06 1.15e-08  2.42e-03   689s
  43   4.02151637e+07  4.02128184e+07  1.46e-06 1.09e-08  1.35e-03   707s
  44   4.02141453e+07  4.02130070e+07  8.00e-07 8.35e-09  6.54e-04   725s
  45   4.02140070e+07  4.02130904e+07  7.19e-07 1.02e-08  5.27e-04   741s
  46   4.02139576e+07  4.02131024e+07  6.71e-07 1.29e-08  4.91e-04   755s
  47   4.02137812e+07  4.02131198e+07  5.05e-07 1.28e-08  3.80e-04   770s
  48   4.02136107e+07  4.02131752e+07  3.44e-07 8.38e-09  2.50e-04   784s
  49   4.02133325e+07  4.02132202e+07  8.11e-08 7.83e-09  6.45e-05   799s
  50   4.02132861e+07  4.02132507e+07  6.60e-08 3.20e-08  2.03e-05   818s
  51   4.02132647e+07  4.02132564e+07  2.20e-08 1.90e-08  4.77e-06   833s
  52   4.02132635e+07  4.02132569e+07  2.53e-05 2.43e-08  3.51e-06   845s

Barrier solved model in 52 iterations and 844.82 seconds (922.86 work units)
Optimal objective 4.02132635e+07


Root crossover log...

  329358 DPushes remaining with DInf 3.1054295e-02               846s
  189902 DPushes remaining with DInf 1.7004690e+02               852s
  159964 DPushes remaining with DInf 5.5116035e+01               858s
  139981 DPushes remaining with DInf 1.4120575e+01               864s
  123569 DPushes remaining with DInf 0.0000000e+00               870s
  109697 DPushes remaining with DInf 0.0000000e+00               875s
   97999 DPushes remaining with DInf 0.0000000e+00               880s
   77994 DPushes remaining with DInf 0.0000000e+00               890s
   70332 DPushes remaining with DInf 0.0000000e+00               895s
   63271 DPushes remaining with DInf 0.0000000e+00               899s
   56921 DPushes remaining with DInf 0.0000000e+00               904s
   51499 DPushes remaining with DInf 0.0000000e+00               908s
   46585 DPushes remaining with DInf 0.0000000e+00               913s
   41893 DPushes remaining with DInf 0.0000000e+00               916s
   37657 DPushes remaining with DInf 0.0000000e+00               920s
   30466 DPushes remaining with DInf 0.0000000e+00               927s
   25049 DPushes remaining with DInf 0.0000000e+00               933s
   22963 DPushes remaining with DInf 0.0000000e+00               935s
   18472 DPushes remaining with DInf 0.0000000e+00               942s
   16202 DPushes remaining with DInf 0.0000000e+00               945s
   14186 DPushes remaining with DInf 0.0000000e+00               950s
   11769 DPushes remaining with DInf 0.0000000e+00               956s
   10073 DPushes remaining with DInf 0.0000000e+00               960s
    7908 DPushes remaining with DInf 0.0000000e+00               965s
    5531 DPushes remaining with DInf 0.0000000e+00               970s
    3521 DPushes remaining with DInf 0.0000000e+00               976s
    1503 DPushes remaining with DInf 0.0000000e+00               981s
       0 DPushes remaining with DInf 0.0000000e+00               986s

  113621 PPushes remaining with PInf 3.0574233e-02               986s
   21976 PPushes remaining with PInf 7.1556174e-02               993s
   11168 PPushes remaining with PInf 7.0287252e-02               996s
       0 PPushes remaining with PInf 0.0000000e+00              1003s

  Push phase complete: Pinf 0.0000000e+00, Dinf 1.8072920e+05   1003s


Root simplex log...

Iteration    Objective       Primal Inf.    Dual Inf.      Time
  290374    4.0213257e+07   0.000000e+00   1.807292e+05   1004s
  290454    4.0213257e+07   0.000000e+00   0.000000e+00   1005s
  290454    4.0213257e+07   0.000000e+00   0.000000e+00   1006s
Waiting for other threads to finish...        1073s
Waiting for other threads to finish...        1140s
Waiting for other threads to finish...        1206s
Waiting for other threads to finish...        1273s
Waiting for other threads to finish...        1340s
Waiting for other threads to finish...        1406s
Waiting for other threads to finish...        1473s
Waiting for other threads to finish...        1540s
Waiting for other threads to finish...        1606s
Waiting for other threads to finish...        1673s
Waiting for other threads to finish...        1739s
Waiting for other threads to finish...        1806s
Waiting for other threads to finish...        1873s
Waiting for other threads to finish...        1939s
Waiting for other threads to finish...        2006s
Concurrent spin time: 1039.92s (can be avoided by choosing Method=3)

Solved with barrier

Root relaxation: objective 4.021326e+07, 290454 iterations, 2006.82 seconds (934.20 work units)
Total elapsed time = 2056.89s (DegenMoves)
Total elapsed time = 2062.68s (DegenMoves)

    Nodes    |    Current Node    |     Objective Bounds      |     Work
 Expl Unexpl |  Obj  Depth IntInf | Incumbent    BestBd   Gap | It/Node Time

     0     0 4.0213e+07    0  250          - 4.0213e+07      -     - 2075s
H    0     0                    4.209606e+07 4.0213e+07  4.47%     - 2204s
H    0     0                    4.051314e+07 4.0213e+07  0.74%     - 2414s

Explored 1 nodes (290572 simplex iterations) in 2414.41 seconds (1122.27 work units)
Thread count was 20 (of 80 available processors)

Solution count 3: 4.05131e+07 4.05131e+07 4.20961e+07 

Optimal solution found (tolerance 1.00e-02)
Best objective 4.051314200416e+07, best bound 4.021325705227e+07, gap 0.7402%

User-callback calls 1084056, time in user-callback 4.23 sec
